14
0 997 992 996 997 995 990 992 999 992 994 999 995 991 
997 0 991 992 997 998 992 990 996 992 998 995 996 990 
992 991 0 991 993 996 991 990 999 991 994 996 991 990 
996 992 991 0 995 992 990 999 993 999 992 994 994 992 
997 997 993 995 0 994 996 999 993 998 999 999 994 998 
995 998 996 992 994 0 997 995 991 995 994 993 998 995 
990 992 991 990 996 997 0 997 994 993 992 993 990 993 
992 990 990 999 999 995 997 0 990 991 994 995 998 996 
999 996 999 993 993 991 994 990 0 997 990 995 997 992 
992 992 991 999 998 995 993 991 997 0 995 997 993 992 
994 998 994 992 999 994 992 994 990 995 0 999 996 990 
999 995 996 994 999 993 993 995 995 997 999 0 990 993 
995 996 991 994 994 998 990 998 997 993 996 990 0 996 
991 990 990 992 998 995 993 996 992 992 990 993 996 0 
